
        $ From http://www.csplib.org/Problems/prob009/data/helmut.pdf
        $ Problem number 23
        $ Sequence length : 24
        language ESSENCE' 1.0
        letting sizemaster be 186
        letting sizes be sequence(2,3,4,7,8,9,12,15,16,18,22,23,24,26,28,30,33,36,43,46,47,60,90,96)
        